num_offers = 20;
num_halls = 10;
start=[16,14,13,54,33,4,15,25,50,56,64,5,2,47,10,31,47,1,16,28];
end=[97,24,25,89,62,77,38,62,71,78,75,74,86,74,40,70,71,50,85,64];
price=[2764,304,1166,3213,1409,6225,772,3596,962,550,188,3555,5426,1894,2068,2894,1364,2878,791,2691];
requirement=[971,439,568,470,484,898,291,357,502,437,886,683,785,501,547,678,934,450,933,493];
capacity=[656,954,913,852,945,345,955,759,521,695];
